(set-logic QF_S)
(declare-fun var0 () String)
(declare-fun var256 () String)
(declare-fun var255 () String)
(declare-fun var254 () String)
(declare-fun var253 () String)
(declare-fun var252 () String)
(declare-fun var251 () String)
(declare-fun var250 () String)
(declare-fun var249 () String)
(declare-fun var248 () String)
(declare-fun var247 () String)
(declare-fun var246 () String)
(declare-fun var245 () String)
(declare-fun var244 () String)
(declare-fun var243 () String)
(declare-fun var242 () String)
(declare-fun var241 () String)
(declare-fun var240 () String)
(declare-fun var239 () String)
(declare-fun var238 () String)
(declare-fun var237 () String)
(declare-fun var236 () String)
(declare-fun var235 () String)
(declare-fun var234 () String)
(declare-fun var233 () String)
(declare-fun var232 () String)
(declare-fun var231 () String)
(declare-fun var230 () String)
(declare-fun var229 () String)
(declare-fun var228 () String)
(declare-fun var227 () String)
(declare-fun var226 () String)
(declare-fun var225 () String)
(declare-fun var224 () String)
(declare-fun var223 () String)
(declare-fun var222 () String)
(declare-fun var221 () String)
(declare-fun var220 () String)
(declare-fun var219 () String)
(declare-fun var218 () String)
(declare-fun var217 () String)
(declare-fun var216 () String)
(declare-fun var215 () String)
(declare-fun var214 () String)
(declare-fun var213 () String)
(declare-fun var212 () String)
(declare-fun var211 () String)
(declare-fun var210 () String)
(declare-fun var209 () String)
(declare-fun var208 () String)
(declare-fun var207 () String)
(declare-fun var206 () String)
(declare-fun var205 () String)
(declare-fun var204 () String)
(declare-fun var203 () String)
(declare-fun var202 () String)
(declare-fun var201 () String)
(declare-fun var200 () String)
(declare-fun var199 () String)
(declare-fun var198 () String)
(declare-fun var197 () String)
(declare-fun var196 () String)
(declare-fun var195 () String)
(declare-fun var194 () String)
(declare-fun var193 () String)
(declare-fun var192 () String)
(declare-fun var191 () String)
(declare-fun var190 () String)
(declare-fun var189 () String)
(declare-fun var188 () String)
(declare-fun var187 () String)
(declare-fun var186 () String)
(declare-fun var185 () String)
(declare-fun var184 () String)
(declare-fun var183 () String)
(declare-fun var182 () String)
(declare-fun var181 () String)
(declare-fun var180 () String)
(declare-fun var179 () String)
(declare-fun var178 () String)
(declare-fun var177 () String)
(declare-fun var176 () String)
(declare-fun var175 () String)
(declare-fun var174 () String)
(declare-fun var173 () String)
(declare-fun var172 () String)
(declare-fun var171 () String)
(declare-fun var170 () String)
(declare-fun var169 () String)
(declare-fun var168 () String)
(declare-fun var167 () String)
(declare-fun var166 () String)
(declare-fun var165 () String)
(declare-fun var164 () String)
(declare-fun var163 () String)
(declare-fun var162 () String)
(declare-fun var161 () String)
(declare-fun var160 () String)
(declare-fun var159 () String)
(declare-fun var158 () String)
(declare-fun var157 () String)
(declare-fun var156 () String)
(declare-fun var155 () String)
(declare-fun var154 () String)
(declare-fun var153 () String)
(declare-fun var152 () String)
(declare-fun var151 () String)
(declare-fun var150 () String)
(declare-fun var149 () String)
(declare-fun var148 () String)
(declare-fun var147 () String)
(declare-fun var146 () String)
(declare-fun var145 () String)
(declare-fun var144 () String)
(declare-fun var143 () String)
(declare-fun var142 () String)
(declare-fun var141 () String)
(declare-fun var140 () String)
(declare-fun var139 () String)
(declare-fun var138 () String)
(declare-fun var137 () String)
(declare-fun var136 () String)
(declare-fun var135 () String)
(declare-fun var134 () String)
(declare-fun var133 () String)
(declare-fun var132 () String)
(declare-fun var131 () String)
(declare-fun var130 () String)
(declare-fun var129 () String)
(declare-fun var128 () String)
(declare-fun var127 () String)
(declare-fun var126 () String)
(declare-fun var125 () String)
(declare-fun var124 () String)
(declare-fun var123 () String)
(declare-fun var122 () String)
(declare-fun var121 () String)
(declare-fun var120 () String)
(declare-fun var119 () String)
(declare-fun var118 () String)
(declare-fun var117 () String)
(declare-fun var116 () String)
(declare-fun var115 () String)
(declare-fun var114 () String)
(declare-fun var113 () String)
(declare-fun var112 () String)
(declare-fun var111 () String)
(declare-fun var110 () String)
(declare-fun var109 () String)
(declare-fun var108 () String)
(declare-fun var107 () String)
(declare-fun var106 () String)
(declare-fun var105 () String)
(declare-fun var104 () String)
(declare-fun var103 () String)
(declare-fun var102 () String)
(declare-fun var101 () String)
(declare-fun var100 () String)
(declare-fun var99 () String)
(declare-fun var98 () String)
(declare-fun var97 () String)
(declare-fun var96 () String)
(declare-fun var95 () String)
(declare-fun var94 () String)
(declare-fun var93 () String)
(declare-fun var92 () String)
(declare-fun var91 () String)
(declare-fun var90 () String)
(declare-fun var89 () String)
(declare-fun var88 () String)
(declare-fun var87 () String)
(declare-fun var86 () String)
(declare-fun var85 () String)
(declare-fun var84 () String)
(declare-fun var83 () String)
(declare-fun var82 () String)
(declare-fun var81 () String)
(declare-fun var80 () String)
(declare-fun var79 () String)
(declare-fun var78 () String)
(declare-fun var77 () String)
(declare-fun var76 () String)
(declare-fun var75 () String)
(declare-fun var74 () String)
(declare-fun var73 () String)
(declare-fun var72 () String)
(declare-fun var71 () String)
(declare-fun var70 () String)
(declare-fun var69 () String)
(declare-fun var68 () String)
(declare-fun var67 () String)
(declare-fun var66 () String)
(declare-fun var65 () String)
(declare-fun var64 () String)
(declare-fun var63 () String)
(declare-fun var62 () String)
(declare-fun var61 () String)
(declare-fun var60 () String)
(declare-fun var59 () String)
(declare-fun var58 () String)
(declare-fun var57 () String)
(declare-fun var56 () String)
(declare-fun var55 () String)
(declare-fun var54 () String)
(declare-fun var53 () String)
(declare-fun var52 () String)
(declare-fun var51 () String)
(declare-fun var50 () String)
(declare-fun var49 () String)
(declare-fun var48 () String)
(declare-fun var47 () String)
(declare-fun var46 () String)
(declare-fun var45 () String)
(declare-fun var44 () String)
(declare-fun var43 () String)
(declare-fun var42 () String)
(declare-fun var41 () String)
(declare-fun var40 () String)
(declare-fun var39 () String)
(declare-fun var38 () String)
(declare-fun var37 () String)
(declare-fun var36 () String)
(declare-fun var35 () String)
(declare-fun var34 () String)
(declare-fun var33 () String)
(declare-fun var32 () String)
(declare-fun var31 () String)
(declare-fun var30 () String)
(declare-fun var29 () String)
(declare-fun var28 () String)
(declare-fun var27 () String)
(declare-fun var26 () String)
(declare-fun var25 () String)
(declare-fun var24 () String)
(declare-fun var23 () String)
(declare-fun var22 () String)
(declare-fun var21 () String)
(declare-fun var20 () String)
(declare-fun var19 () String)
(declare-fun var18 () String)
(declare-fun var17 () String)
(declare-fun var16 () String)
(declare-fun var15 () String)
(declare-fun var14 () String)
(declare-fun var13 () String)
(declare-fun var12 () String)
(declare-fun var11 () String)
(declare-fun var10 () String)
(declare-fun var9 () String)
(declare-fun var8 () String)
(declare-fun var7 () String)
(declare-fun var6 () String)
(declare-fun var5 () String)
(declare-fun var4 () String)
(declare-fun var3 () String)
(declare-fun var2 () String)
(declare-fun var1 () String)
(assert (= var0 (str.++ (str.++ (str.++ (str.++ (str.++ (str.++ (str.++ (str.++ var256 var255) (str.++ var254 var253)) (str.++ (str.++ var252 var251) (str.++ var250 var249))) (str.++ (str.++ (str.++ var248 var247) (str.++ var246 var245)) (str.++ (str.++ var244 var243) (str.++ var242 var241)))) (str.++ (str.++ (str.++ (str.++ var240 var239) (str.++ var238 var237)) (str.++ (str.++ var236 var235) (str.++ var234 var233))) (str.++ (str.++ (str.++ var232 var231) (str.++ var230 var229)) (str.++ (str.++ var228 var227) (str.++ var226 var225))))) (str.++ (str.++ (str.++ (str.++ (str.++ var224 var223) (str.++ var222 var221)) (str.++ (str.++ var220 var219) (str.++ var218 var217))) (str.++ (str.++ (str.++ var216 var215) (str.++ var214 var213)) (str.++ (str.++ var212 var211) (str.++ var210 var209)))) (str.++ (str.++ (str.++ (str.++ var208 var207) (str.++ var206 var205)) (str.++ (str.++ var204 var203) (str.++ var202 var201))) (str.++ (str.++ (str.++ var200 var199) (str.++ var198 var197)) (str.++ (str.++ var196 var195) (str.++ var194 var193)))))) (str.++ (str.++ (str.++ (str.++ (str.++ (str.++ var192 var191) (str.++ var190 var189)) (str.++ (str.++ var188 var187) (str.++ var186 var185))) (str.++ (str.++ (str.++ var184 var183) (str.++ var182 var181)) (str.++ (str.++ var180 var179) (str.++ var178 var177)))) (str.++ (str.++ (str.++ (str.++ var176 var175) (str.++ var174 var173)) (str.++ (str.++ var172 var171) (str.++ var170 var169))) (str.++ (str.++ (str.++ var168 var167) (str.++ var166 var165)) (str.++ (str.++ var164 var163) (str.++ var162 var161))))) (str.++ (str.++ (str.++ (str.++ (str.++ var160 var159) (str.++ var158 var157)) (str.++ (str.++ var156 var155) (str.++ var154 var153))) (str.++ (str.++ (str.++ var152 var151) (str.++ var150 var149)) (str.++ (str.++ var148 var147) (str.++ var146 var145)))) (str.++ (str.++ (str.++ (str.++ var144 var143) (str.++ var142 var141)) (str.++ (str.++ var140 var139) (str.++ var138 var137))) (str.++ (str.++ (str.++ var136 var135) (str.++ var134 var133)) (str.++ (str.++ var132 var131) (str.++ var130 var129))))))) (str.++ (str.++ (str.++ (str.++ (str.++ (str.++ (str.++ var128 var127) (str.++ var126 var125)) (str.++ (str.++ var124 var123) (str.++ var122 var121))) (str.++ (str.++ (str.++ var120 var119) (str.++ var118 var117)) (str.++ (str.++ var116 var115) (str.++ var114 var113)))) (str.++ (str.++ (str.++ (str.++ var112 var111) (str.++ var110 var109)) (str.++ (str.++ var108 var107) (str.++ var106 var105))) (str.++ (str.++ (str.++ var104 var103) (str.++ var102 var101)) (str.++ (str.++ var100 var99) (str.++ var98 var97))))) (str.++ (str.++ (str.++ (str.++ (str.++ var96 var95) (str.++ var94 var93)) (str.++ (str.++ var92 var91) (str.++ var90 var89))) (str.++ (str.++ (str.++ var88 var87) (str.++ var86 var85)) (str.++ (str.++ var84 var83) (str.++ var82 var81)))) (str.++ (str.++ (str.++ (str.++ var80 var79) (str.++ var78 var77)) (str.++ (str.++ var76 var75) (str.++ var74 var73))) (str.++ (str.++ (str.++ var72 var71) (str.++ var70 var69)) (str.++ (str.++ var68 var67) (str.++ var66 var65)))))) (str.++ (str.++ (str.++ (str.++ (str.++ (str.++ var64 var63) (str.++ var62 var61)) (str.++ (str.++ var60 var59) (str.++ var58 var57))) (str.++ (str.++ (str.++ var56 var55) (str.++ var54 var53)) (str.++ (str.++ var52 var51) (str.++ var50 var49)))) (str.++ (str.++ (str.++ (str.++ var48 var47) (str.++ var46 var45)) (str.++ (str.++ var44 var43) (str.++ var42 var41))) (str.++ (str.++ (str.++ var40 var39) (str.++ var38 var37)) (str.++ (str.++ var36 var35) (str.++ var34 var33))))) (str.++ (str.++ (str.++ (str.++ (str.++ var32 var31) (str.++ var30 var29)) (str.++ (str.++ var28 var27) (str.++ var26 var25))) (str.++ (str.++ (str.++ var24 var23) (str.++ var22 var21)) (str.++ (str.++ var20 var19) (str.++ var18 var17)))) (str.++ (str.++ (str.++ (str.++ var16 var15) (str.++ var14 var13)) (str.++ (str.++ var12 var11) (str.++ var10 var9))) (str.++ (str.++ (str.++ var8 var7) (str.++ var6 var5)) (str.++ (str.++ var4 var3) (str.++ var2 var1))))))))))
(assert (= var0 "solution"))
(check-sat)